15 40
25
2 11 13 29
3 2 3 6
7 10 4 16
4 8 2 8
5 9 4 31
2 7 2 16
1 4 6 12
1 6 6 6
5 4 3 0
3 8 0 0
3 1 8 3
5 5 4 26
1 3 8 0
4 12 7 4
2 6 2 23
4 2 3 4
4 11 0 29
2 10 0 8
2 3 11 29
2 11 0 18
4 3 11 0
4 26 11 3
4 8 9 32
2 3 9 0
2 6 9 26
% time elapsed: 245.92 s
% time elapsed: 245.92 s
%%%mzn-stat: initTime=0.000369
%%%mzn-stat: solveTime=245.836
%%%mzn-stat: solutions=69
%%%mzn-stat: variables=51
%%%mzn-stat: propagators=30
%%%mzn-stat: propagations=103467382
%%%mzn-stat: nodes=33490081
%%%mzn-stat: failures=16738890
%%%mzn-stat: restarts=646
%%%mzn-stat: peakDepth=93
%%%mzn-stat-end
